#SOLVERNAME# PAJ_Gurobi_MOSEK_msd_noscale_subponly_noinit
#SOLVER# Pajarito.PajaritoSolver(3, 3600.0, 1.0e-5, true, Gurobi.GurobiSolver(nothing, Any[(:OutputFlag, 1), (:Threads, 8), (:IntFeasTol, 1.0e-9), (:FeasibilityTol, 1.0e-6), (:MIPGap, 1.0e-5)]), Pajarito.UnsetSolver(), 0, false, true, Mosek.MosekSolver(Any[(:LOG, 0), (:NUM_THREADS, 8), (:MSK_DPAR_INTPNT_CO_TOL_REL_GAP, 1.0e-10), (:MSK_DPAR_INTPNT_CO_TOL_PFEAS, 1.0e-10), (:MSK_DPAR_INTPNT_CO_TOL_DFEAS, 1.0e-10), (:MSK_DPAR_INTPNT_CO_TOL_NEAR_REL, 1000.0)]), true, true, false, false, true, false, false, true, false, false, false, false, false, false, false, 10.0, true, false, false, false, 1.0e-12, 1.0e-6, false, "")
#INSTANCE# ck_n75_m10_o1_5.cbf.gz
#TIMELIMIT# 3600.0

Problem dimensions:
       variables |    1606
     constraints |    1605
   nonzeros in A |    2629

Cones summary:
Cone             | Count   | Min dim.  | Max dim. 
    Rotated S.O. |      10 |        77 |        77

Variable types:
      continuous |    1531
         integer |      75

Transforming data...               0.00s

Creating conic subproblem...       0.03s

Building MIP model...              0.00s

Solving conic relaxation...        0.02s
 - Relaxation status    =        Optimal
 - Relaxation bound     =  -32310.076774
Academic license - for non-commercial use only
Warning for adding constraints: zero or small (< 1e-13) coefficients, ignored
Optimize a model with 1772 rows, 2365 columns and 4074 nonzeros
Variable types: 2290 continuous, 75 integer (0 binary)
Coefficient statistics:
  Matrix range     [1e-13, 5e+02]
  Objective range  [4e+01, 1e+03]
  Bounds range     [0e+00, 0e+00]
  RHS range        [1e+00, 6e+02]
Warning: Model contains large matrix coefficient range
         Consider reformulating model or setting NumericFocus parameter
         to avoid numerical issues.
Found heuristic solution: objective -5578.000000
Presolve removed 1640 rows and 1520 columns
Presolve time: 0.00s
Presolved: 132 rows, 845 columns, 1330 nonzeros
Variable types: 770 continuous, 75 integer (75 binary)

Root relaxation: objective -3.229587e+04, 147 iterations, 0.00 seconds

    Nodes    |    Current Node    |     Objective Bounds      |     Work
 Expl Unexpl |  Obj  Depth IntInf | Incumbent    BestBd   Gap | It/Node Time

     0     0 -32295.867    0   14 -5578.0000 -32295.867   479%     -    0s
H    0     0                    -28607.00000 -32295.867  12.9%     -    0s
H    0     0                    -29074.00000 -32295.867  11.1%     -    0s
H    0     0                    -29348.00000 -32295.867  10.0%     -    0s
     0     0 -31609.510    0   21 -29348.000 -31609.510  7.71%     -    0s
     0     0 -31560.712    0   17 -29348.000 -31560.712  7.54%     -    0s
     0     0 -31551.496    0   19 -29348.000 -31551.496  7.51%     -    0s
     0     0 -31551.179    0   19 -29348.000 -31551.179  7.51%     -    0s
     0     0 -31551.159    0   19 -29348.000 -31551.159  7.51%     -    0s
     0     0 -31494.545    0   17 -29348.000 -31494.545  7.31%     -    0s
H    0     0                    -30022.00000 -31494.545  4.90%     -    0s
     0     0 -31482.198    0   18 -30022.000 -31482.198  4.86%     -    0s
     0     0 -31480.120    0   18 -30022.000 -31480.120  4.86%     -    0s
     0     0 -31399.751    0   18 -30022.000 -31399.751  4.59%     -    0s
H    0     0                    -30470.00000 -31399.751  3.05%     -    0s
     0     0 -31381.625    0   16 -30470.000 -31381.625  2.99%     -    0s
     0     0 -31380.814    0   17 -30470.000 -31380.814  2.99%     -    0s
     0     0 -31374.416    0   18 -30470.000 -31374.416  2.97%     -    0s
     0     0 -31321.494    0   23 -30470.000 -31321.494  2.79%     -    0s
     0     0 -31300.113    0   26 -30470.000 -31300.113  2.72%     -    0s
     0     0 -31299.285    0   25 -30470.000 -31299.285  2.72%     -    0s
     0     0 -31296.954    0   23 -30470.000 -31296.954  2.71%     -    0s
     0     0 -31296.377    0   25 -30470.000 -31296.377  2.71%     -    0s
     0     0 -31271.460    0   18 -30470.000 -31271.460  2.63%     -    0s
     0     0 -31263.613    0   26 -30470.000 -31263.613  2.60%     -    0s
     0     0 -31259.447    0   25 -30470.000 -31259.447  2.59%     -    0s
     0     0 -31258.341    0   25 -30470.000 -31258.341  2.59%     -    0s
     0     0 -31248.837    0   23 -30470.000 -31248.837  2.56%     -    0s
     0     0 -31246.022    0   25 -30470.000 -31246.022  2.55%     -    0s
     0     0 -31244.581    0   19 -30470.000 -31244.581  2.54%     -    0s
     0     0 -31243.855    0   24 -30470.000 -31243.855  2.54%     -    0s
     0     0 -31241.969    0   26 -30470.000 -31241.969  2.53%     -    0s
     0     2 -31241.969    0   26 -30470.000 -31241.969  2.53%     -    0s
H  229   115                    -30703.00000 -31101.526  1.30%  21.5    0s
*  231   104              15    -30789.00000 -31101.526  1.02%  21.5    0s
H  601    23                    -30802.00000 -30983.061  0.59%  20.6    0s

Cutting planes:
  Learned: 1
  Cover: 21
  MIR: 66
  StrongCG: 7
  Inf proof: 1
  Lazy constraints: 119

Explored 693 nodes (14249 simplex iterations) in 0.37 seconds
Thread count was 8 (of 16 available processors)

Solution count 9: -30802 -30789 -30703 ... -5578

Optimal solution found (tolerance 1.00e-05)
Best objective -3.080200000000e+04, best bound -3.080200000000e+04, gap 0.0000%

Starting MIP-solver-driven algorithm

MIP-solver-driven algorithm summary:
 - Status               =        Optimal
 - Best feasible        =  -3.080200e+04
 - Best bound           =  -3.080200e+04
 - Relative opt. gap    =      0.000e+00
 - Total time (s)       =       4.31e-01

Timers (s):
 - Setup                =   3.61e-02
 -- Transform data      =   1.08e-03
 -- Create conic data   =   3.21e-02
 -- Create MIP data     =   2.94e-03
 - Algorithm            =   3.95e-01
 -- Solve relaxation    =   2.07e-02
 -- Get relaxation cuts =   3.99e-04
 -- MIP solver driving  =   3.73e-01
 -- Solve subproblems   =   6.03e-02
 -- Get subproblem cuts =   1.27e-03
 -- Get separation cuts =   0.00e+00

Counters:
 - Lazy callbacks       =    13
 -- Integer repeats     =     1
 -- Conic subproblems   =    13
 --- Infeasible         =     4
 --- Optimal            =     9
 --- Suboptimal         =     0
 --- UserLimit          =     0
 --- ConicFailure       =     0
 --- Other status       =     0
 -- Feasible solutions  =     9
 --- From subproblems   =     9
 --- In lazy callback   =     0
 - Heuristic callbacks  =   458
 -- Solutions passed    =     6

Solution returned by conic solver

Rounds of full separation/subproblem cuts, and count of cuts added:
Cone             | Subp.  | Sep.   | Total  | Relax. | Viol. 
    Second order |     52 |      0 |    119 |    147 |    119

42 numerically unstable disaggregated SOC cuts

Distance to feasibility (negative indicates strict feasibility):
Cone             | Variable  | Constraint
          Linear |  0.00e+00 |  7.11e-15
    Rotated S.O. | -1.26e-01 |        NA

Distance to integrality of integer/binary variables:
         integer |  1.55e-15

#STATUS# Optimal
#OBJVAL# 30802.0
#OBJBOUND# 30802.0
#NODECOUNT# 693
#TIMESOLVER# 0.43084001541137695
#TIMEALL# 0.4725050926208496
#SOLUTION# [-0.0,1.0,1.0,1.0,1.0,1.0,0.0,1.0,0.0,0.0,1.0,0.0,1.0,-0.0,1.0,-0.0,1.0,0.0,1.0,0.0,1.0,1.0,1.0,1.0,1.0,0.0,1.0,-0.0,1.0,1.0,1.0,1.0,1.0,1.0,1.0,1.0,0.0,-0.0,1.0,-0.0,0.0,1.0,0.0,-0.0,1.0,1.0,1.0,-0.0,0.9999999999999997,1.0,1.0,-0.0,-0.0,-0.0,-0.0,1.0,1.0,0.0,1.0000000000000009,0.9999999999999984,0.0,1.0,1.0,1.0,1.0,1.0,1.0,1.0,1.0,1.0,0.0,1.0,-0.0,-0.0,1.0,0.0,0.0,9.0,3.0,0.0,0.0,0.0,0.0,0.0,0.0,0.0,0.0,0.0,0.0,0.0,0.0,0.0,0.0,0.0,81.0,0.0,0.0,0.0,0.0,0.0,35.0,0.0,0.0,0.0,0.0,0.0,0.0,0.0,1.0,0.0,0.0,0.0,0.0,0.0,0.0,0.0,0.0,0.0,0.0,0.0,0.0,0.0,0.0,0.0,39.999999999999986,0.0,0.0,0.0,0.0,0.0,0.0,0.0,0.0,0.0,0.0,0.0,0.0,2.0,0.0,0.0,0.0,0.0,0.0,63.0,0.0,0.0,0.0,0.0,0.0,0.0,20.0,117.7803406111912,0.0,31.0,21.0,0.0,0.0,0.0,0.0,0.0,0.0,0.0,0.0,0.0,0.0,0.0,0.0,0.0,0.0,0.0,0.0,0.0,0.0,0.0,0.0,0.0,0.0,0.0,0.0,0.0,0.0,0.0,0.0,0.0,0.0,0.0,0.0,0.0,0.0,0.0,0.0,0.0,0.0,0.0,0.0,0.0,13.0,0.0,0.0,0.0,0.0,0.0,70.0,0.0,0.0,0.0,0.0,0.0,0.0,0.0,0.0,0.0,0.0,0.0,0.0,0.0,0.0,0.0,0.0,0.0,9.0,0.0,0.0,0.0,0.0,0.0,0.0,89.46925699779968,0.0,0.0,0.0,0.0,0.0,0.0,0.0,0.0,0.0,0.0,0.0,0.0,18.0,0.0,0.0,0.0,0.0,0.0,0.0,0.0,0.0,22.0,0.0,0.0,0.0,0.0,0.0,0.0,0.0,0.0,0.0,0.0,0.0,12.0,0.0,0.0,0.0,0.0,0.0,0.0,0.0,0.0,0.0,0.0,0.0,0.0,0.0,0.0,0.0,0.0,0.0,0.0,0.0,0.0,0.0,0.0,0.0,0.0,0.0,0.0,0.0,0.0,10.0,34.0,0.0,0.0,0.0,0.0,0.0,0.0,0.0,0.0,0.0,0.0,0.0,63.45135210662399,0.0,0.0,0.0,0.0,0.0,0.0,0.0,1.0,0.0,0.0,0.0,0.0,0.0,0.0,0.0,0.0,0.0,0.0,0.0,0.0,0.0,0.0,0.0,0.0,0.0,0.0,0.0,0.0,0.0,0.0,0.0,0.0,0.0,0.0,0.0,0.0,0.0,0.0,0.0,0.0,0.0,0.0,0.0,0.0,0.0,0.0,0.0,0.0,0.0,9.0,0.0,0.0,0.0,0.0,0.0,31.0,0.0,0.0,0.0,0.0,0.0,0.0,0.0,16.0,0.0,0.0,0.0,1.0,0.0,93.0,0.0,0.0,0.0,0.0,0.0,105.91018326316495,0.0,0.0,0.0,0.0,2.0,0.0,0.0,0.0,0.0,0.0,0.0,0.0,0.0,0.0,0.0,0.0,0.0,0.0,0.0,0.0,16.0,0.0,0.0,0.0,0.0,0.0,0.0,0.0,0.0,0.0,9.0,3.0,0.0,0.0,0.0,0.0,0.0,0.0,73.0,0.0,0.0,0.0,0.0,0.0,0.0,0.0,0.0,0.0,0.0,45.0,0.0,0.0,0.0,0.0,0.0,0.0,0.0,0.0,57.00000000000005,0.0,0.0,0.0,0.0,0.0,27.0,0.0,0.0,0.0,0.0,0.0,0.0,0.0,0.0,0.0,0.0,112.63359394308696,0.0,0.0,0.0,0.0,27.0,0.0,0.0,39.0,0.0,0.0,0.0,0.0,0.0,0.0,0.0,0.0,0.0,0.0,62.0,0.0,0.0,0.0,0.0,0.0,0.0,0.0,0.0,0.0,0.0,0.0,0.0,0.0,52.0,0.0,18.0,17.0,0.0,0.0,0.0,0.0,0.0,0.0,0.0,0.0,0.0,3.0,0.0,0.0,0.0,1.0,0.0,0.0,0.0,0.0,0.0,0.0,0.0,0.0,0.0,8.999999999999986,0.0,0.0,0.0,0.0,32.0,0.0,0.0,0.0,30.0,0.0,0.0,0.0,0.0,0.0,0.0,112.8617680815161,0.0,0.0,0.0,0.0,0.0,0.0,0.0,57.0,0.0,0.0,1.0,0.0,34.0,0.0,0.0,0.0,12.0,0.0,0.0,0.0,0.0,0.0,0.0,0.0,0.0,0.0,0.0,0.0,0.0,0.0,0.0,0.0,0.0,0.0,0.0,0.0,0.0,0.0,0.0,0.0,0.0,0.0,0.0,0.0,0.0,0.0,0.0,0.0,11.999999999999996,0.0,0.0,0.0,0.0,0.0,0.0,0.0,0.0,0.0,0.0,0.0,0.0,0.0,0.0,0.0,0.0,0.0,0.0,0.0,5.0,0.0,0.0,0.0,0.0,0.0,0.0,69.37937487498557,0.0,0.0,0.0,0.0,1.0,0.0,0.0,0.0,0.0,0.0,0.0,0.0,0.0,0.0,0.0,0.0,0.0,0.0,0.0,0.0,0.0,0.0,0.0,0.0,0.0,0.0,0.0,0.0,0.0,0.0,0.0,0.0,0.0,32.0,0.0,0.0,0.0,0.0,0.0,0.0,0.0,0.0,0.0,0.0,0.0,0.0,0.0,0.0,16.999999999999993,0.0,0.0,0.0,0.0,0.0,0.0,0.0,0.0,0.0,18.000000000000014,0.0,0.0,0.0,0.0,0.0,0.0,0.0,0.0,0.0,0.0,0.0,0.0,0.0,0.0,0.0,0.0,42.56652669429952,0.0,0.0,0.0,0.0,0.0,0.0,0.0,0.0,0.0,0.0,0.0,0.0,0.0,0.0,0.0,0.0,0.0,0.0,0.0,0.0,0.0,1.0,0.0,0.0,0.0,0.0,0.0,0.0,0.0,0.0,0.0,0.0,0.0,0.0,0.0,0.0,0.0,0.0,56.0,0.0,0.0,0.0,0.0,0.0,0.0,50.0,0.0,0.0,0.0,33.0,0.0,0.0,0.0,0.0,0.0,0.0,2.0,0.0,0.0,63.9999999999999,0.0,0.0,0.0,0.0,0.0,0.0,0.0,0.0,0.0,0.0,0.0,0.0,0.0,0.0,0.0,107.68758312576301,0.0,0.0,0.0,0.0,0.0,0.0,0.0,0.0,0.0,0.0,0.0,0.0,0.0,0.0,16.0,0.0,0.0,0.0,0.0,0.0,0.0,0.0,0.0,0.0,0.0,0.0,33.0,0.0,0.0,0.0,0.0,0.0,0.0,0.0,0.0,0.0,0.0,0.0,0.0,0.0,0.0,0.0,0.0,0.0,0.0,0.0,0.0,0.0,0.0,0.0,0.0,0.0,0.0,0.0,0.0,0.0,0.0,0.0,0.0,0.0,0.0,0.0,0.0,0.0,0.0,0.0,0.0,0.0,0.0,0.0,0.0,0.0,0.0,0.0,0.0,39.35971160547172,166.56655507326923,83.28327753663463,0.0,12.727922061357855,4.242640687119285,0.0,0.0,0.0,0.0,0.0,0.0,0.0,0.0,0.0,0.0,0.0,0.0,0.0,0.0,0.0,114.55129855222069,0.0,0.0,0.0,0.0,0.0,49.49747468305832,0.0,0.0,0.0,0.0,0.0,0.0,0.0,1.414213562373095,0.0,0.0,0.0,0.0,0.0,0.0,0.0,0.0,0.0,0.0,0.0,0.0,0.0,0.0,0.0,56.568542494923776,0.0,0.0,0.0,0.0,0.0,0.0,0.0,0.0,0.0,0.0,0.0,0.0,2.82842712474619,0.0,0.0,0.0,0.0,0.0,89.09545442950498,0.0,0.0,0.0,0.0,0.0,0.0,28.2842712474619,126.52863666173224,63.26431833086613,0.0,43.840620433565945,29.698484809834994,0.0,0.0,0.0,0.0,0.0,0.0,0.0,0.0,0.0,0.0,0.0,0.0,0.0,0.0,0.0,0.0,0.0,0.0,0.0,0.0,0.0,0.0,0.0,0.0,0.0,0.0,0.0,0.0,0.0,0.0,0.0,0.0,0.0,0.0,0.0,0.0,0.0,0.0,0.0,0.0,0.0,18.384776310850235,0.0,0.0,0.0,0.0,0.0,98.99494936611664,0.0,0.0,0.0,0.0,0.0,0.0,0.0,0.0,0.0,0.0,0.0,0.0,0.0,0.0,0.0,0.0,0.0,12.727922061357855,0.0,0.0,0.0,0.0,0.0,0.0,89.7337627000983,44.866881350049155,0.0,0.0,0.0,0.0,0.0,0.0,0.0,0.0,0.0,0.0,0.0,0.0,25.45584412271571,0.0,0.0,0.0,0.0,0.0,0.0,0.0,0.0,31.112698372208087,0.0,0.0,0.0,0.0,0.0,0.0,0.0,0.0,0.0,0.0,0.0,16.97056274847714,0.0,0.0,0.0,0.0,0.0,0.0,0.0,0.0,0.0,0.0,0.0,0.0,0.0,0.0,0.0,0.0,0.0,0.0,0.0,0.0,0.0,0.0,0.0,0.0,0.0,0.0,0.0,0.0,14.14213562373095,48.08326112068523,0.0,0.0,0.0,0.0,0.0,0.0,0.0,0.0,0.0,0.0,0.0,149.77961756418784,74.88980878209394,0.0,0.0,0.0,0.0,0.0,0.0,0.0,1.414213562373095,0.0,0.0,0.0,0.0,0.0,0.0,0.0,0.0,0.0,0.0,0.0,0.0,0.0,0.0,0.0,0.0,0.0,0.0,0.0,0.0,0.0,0.0,0.0,0.0,0.0,0.0,0.0,0.0,0.0,0.0,0.0,0.0,0.0,0.0,0.0,0.0,0.0,0.0,0.0,0.0,0.0,12.727922061357855,0.0,0.0,0.0,0.0,0.0,43.840620433565945,0.0,0.0,0.0,0.0,0.0,0.0,0.0,22.62741699796952,0.0,0.0,0.0,1.414213562373095,0.0,131.52186130069782,0.0,0.0,0.0,0.0,0.0,159.28795613313767,79.64397806656885,0.0,0.0,0.0,0.0,2.82842712474619,0.0,0.0,0.0,0.0,0.0,0.0,0.0,0.0,0.0,0.0,0.0,0.0,0.0,0.0,0.0,22.62741699796952,0.0,0.0,0.0,0.0,0.0,0.0,0.0,0.0,0.0,12.727922061357855,4.242640687119285,0.0,0.0,0.0,0.0,0.0,0.0,103.23759005323593,0.0,0.0,0.0,0.0,0.0,0.0,0.0,0.0,0.0,0.0,63.63961030678927,0.0,0.0,0.0,0.0,0.0,0.0,0.0,0.0,80.61017305526649,0.0,0.0,0.0,0.0,0.0,38.18376618407356,0.0,0.0,0.0,0.0,0.0,0.0,0.0,0.0,0.0,0.0,159.61064309428696,79.80532154714349,0.0,0.0,0.0,0.0,38.18376618407356,0.0,0.0,55.154328932550705,0.0,0.0,0.0,0.0,0.0,0.0,0.0,0.0,0.0,0.0,87.68124086713189,0.0,0.0,0.0,0.0,0.0,0.0,0.0,0.0,0.0,0.0,0.0,0.0,0.0,73.53910524340094,0.0,25.45584412271571,24.041630560342615,0.0,0.0,0.0,0.0,0.0,0.0,0.0,0.0,0.0,4.242640687119285,0.0,0.0,0.0,1.414213562373095,0.0,0.0,0.0,0.0,0.0,0.0,0.0,0.0,0.0,12.727922061357834,0.0,0.0,0.0,0.0,45.25483399593904,0.0,0.0,0.0,42.426406871192846,0.0,0.0,0.0,0.0,0.0,0.0,98.11725289717174,49.05862644858588,0.0,0.0,0.0,0.0,0.0,0.0,0.0,80.61017305526642,0.0,0.0,1.414213562373095,0.0,48.08326112068523,0.0,0.0,0.0,16.97056274847714,0.0,0.0,0.0,0.0,0.0,0.0,0.0,0.0,0.0,0.0,0.0,0.0,0.0,0.0,0.0,0.0,0.0,0.0,0.0,0.0,0.0,0.0,0.0,0.0,0.0,0.0,0.0,0.0,0.0,0.0,0.0,16.970562748477136,0.0,0.0,0.0,0.0,0.0,0.0,0.0,0.0,0.0,0.0,0.0,0.0,0.0,0.0,0.0,0.0,0.0,0.0,0.0,7.071067811865475,0.0,0.0,0.0,0.0,0.0,0.0,60.198159354194765,30.09907967709739,0.0,0.0,0.0,0.0,1.414213562373095,0.0,0.0,0.0,0.0,0.0,0.0,0.0,0.0,0.0,0.0,0.0,0.0,0.0,0.0,0.0,0.0,0.0,0.0,0.0,0.0,0.0,0.0,0.0,0.0,0.0,0.0,0.0,0.0,45.25483399593904,0.0,0.0,0.0,0.0,0.0,0.0,0.0,0.0,0.0,0.0,0.0,0.0,0.0,0.0,24.041630560342604,0.0,0.0,0.0,0.0,0.0,0.0,0.0,0.0,0.0,25.455844122715728,0.0,0.0,0.0,0.0,0.0,0.0,0.0,0.0,0.0,0.0,0.0,0.0,0.0,0.0,0.0,0.0,152.2932405556341,76.14662027781706,0.0,0.0,0.0,0.0,0.0,0.0,0.0,0.0,0.0,0.0,0.0,0.0,0.0,0.0,0.0,0.0,0.0,0.0,0.0,0.0,0.0,1.414213562373095,0.0,0.0,0.0,0.0,0.0,0.0,0.0,0.0,0.0,0.0,0.0,0.0,0.0,0.0,0.0,0.0,79.19595949289331,0.0,0.0,0.0,0.0,0.0,0.0,70.71067811865474,0.0,0.0,0.0,46.66904755831213,0.0,0.0,0.0,0.0,0.0,0.0,2.82842712474619,0.0,0.0,90.50966799187793,0.0,0.0,0.0,0.0,0.0,0.0,0.0,0.0,0.0,0.0,0.0,0.0,0.0,0.0,0.0,55.66303796355181,27.83151898177591,0.0,0.0,0.0,0.0,0.0,0.0,0.0,0.0,0.0,0.0,0.0,0.0,0.0,0.0,22.62741699796952,0.0,0.0,0.0,0.0,0.0,0.0,0.0,0.0,0.0,0.0,0.0,46.66904755831213,0.0,0.0,0.0,0.0,0.0,0.0,0.0,0.0,0.0,0.0,0.0,0.0,0.0,0.0,0.0,0.0,0.0,0.0,0.0,0.0,0.0,0.0,0.0,0.0,0.0,0.0,0.0,0.0,0.0,0.0,0.0,0.0,0.0,0.0,0.0,0.0,0.0,0.0,0.0,0.0,0.0,0.0,0.0,0.0,0.0,0.0,0.0,0.0]
